Instance Name : rc201
Date : 2022-07-18
Solution
Route 1 : 72 39 36 42 44 61 88 73 78 79 7 6 8 46 3 43 35 37 54 93 91 80
Route 2 : 5 45 2 98 69 82 12 11 15 16 75 87 86 57 99 53 9 10 97 74 13 17 60
Route 3 : 92 95 63 33 28 27 29 31 30 62 67 71 38 40 41 81 90 94 50 34 26 32 89 48 24 25 77 58
Route 4 : 65 14 47 59 52 83 64 19 23 21 18 76 85 84 51 49 22 20 66 56 96 68 55 4 1 70 100
